sing20170619.12
TTAA 69121 48698
99006 29250 19004 00080 28650 16007 92768 22222 19006
85502 20462 25517 70150 09846 23506 50586 06112 25012
40758 15718 14011 30969 29930 10034 25096 40338 09535
20244 53149 08046 15423 68148 06564 10662 73562 17530
88124 75158 06575
77135 06583 43153=
TTCC 69125 48698
70871 71368 27532 50071 63578 27044 30382 ///// /////
88907 78159 19021
77999=
TTDD 6912/ 48698
11907 78159 22837 69570 33811 69370 44724 72767 55585
71370 66502 63578 77444 62178 88333 66775
21212 11904 19522 22881 17523 33866 19515 44859 22014
55848 25518 66835 26524 77788 26044 88767 25541 99622
28525 11608 30021 22575 30025 33552 27030 44507 27046
55461 27034 66417 29520 77372 26511 88341 02004 99333
07007=
